c colouring generated by benchmark framework
p edge 138 493
v 1 9
v 2 9
v 3 6
v 4 2
v 5 2
v 6 2
v 7 8
v 8 3
v 9 8
v 10 0
v 11 1
v 12 6
v 13 1
v 14 1
v 15 5
v 16 7
v 17 6
v 18 0
v 19 5
v 20 5
v 21 1
v 22 9
v 23 7
v 24 0
v 25 0
v 26 6
v 27 7
v 28 1
v 29 7
v 30 3
v 31 6
v 32 9
v 33 3
v 34 2
v 35 3
v 36 4
v 37 2
v 38 2
v 39 1
v 40 5
v 41 2
v 42 4
v 43 7
v 44 6
v 45 5
v 46 3
v 47 0
v 48 0
v 49 4
v 50 1
v 51 7
v 52 6
v 53 8
v 54 4
v 55 1
v 56 9
v 57 5
v 58 0
v 59 1
v 60 0
v 61 9
v 62 4
v 63 9
v 64 10
v 65 3
v 66 3
v 67 3
v 68 7
v 69 1
v 70 2
v 71 10
v 72 8
v 73 3
v 74 10
v 75 7
v 76 2
v 77 0
v 78 4
v 79 6
v 80 1
v 81 1
v 82 0
v 83 5
v 84 1
v 85 5
v 86 0
v 87 6
v 88 4
v 89 1
v 90 8
v 91 7
v 92 7
v 93 7
v 94 0
v 95 1
v 96 10
v 97 8
v 98 10
v 99 6
v 100 5
v 101 1
v 102 10
v 103 3
v 104 0
v 105 9
v 106 0
v 107 4
v 108 6
v 109 2
v 110 10
v 111 0
v 112 10
v 113 1
v 114 7
v 115 0
v 116 5
v 117 6
v 118 6
v 119 0
v 120 0
v 121 4
v 122 6
v 123 8
v 124 0
v 125 2
v 126 3
v 127 1
v 128 10
v 129 5
v 130 8
v 131 0
v 132 9
v 133 7
v 134 0
v 135 9
v 136 3
v 137 6
v 138 2
